16490
1 0 1 0 1 1 1 1 1 1 1 1 0 1 1 1 1 0 1 0 1 1 0 0 1 1 1 0 0 1
21 20 7 25 5 8 13 8 21 9 26 13 26 16 16 14 13 18 25 5 24 8 18 7 5 5 0 29 25 9 4 24 11 9 4 21 20 8 11 11 4 13 15 21 14 24 0 6 5 7 10 13 8 7 13 21 18 8 13 8 10 13 8 7 13 4 13 20 9 4 8 15 18 10 14 29 7 9 7 7 4 2 10 7 4 26 8 26 7 16 4 2 8 7 4 26 13 24 7 13 4 5 15 9 4 10 0 8 5 13 29 20 6 5 7 10 8 8 25 5 7 0 6 26 13 24 20 8 15 25 10 13 8 25 13 21 18 8 25 5 11 21 18 10 21 18 0 29 25 13